8 
9 
9 
2 
8 
8 
8 
9 
9 
6 
9 
9 
7 
9 
10 
6 
13 
7 
11 
10 
5 
7 
8 
11 
11 
12 
8 
5 
4 
7 
4 
18 
6 
2 
6 
4 
8 
7 
6 
8 
10 
12 
3 
9 
7 
3 
6 
6 
13 
5 
8 
10 
5 
9 
7 
7 
6 
8 
8 
4 
8 
4 
5 
3 
10 
11 
9 
6 
9 
10 
5 
7 
10 
7 
7 
11 
13 
7 
11 
10 
5 
5 
9 
5 
6 
6 
10 
11 
10 
11 
5 
6 
6 
12 
4 
14 
6 
8 
4 
3 
